5577
401
8060
6233
8680
7623
4384
4376
1562
7188
8383
6907
7446
5452
3096
7578
4406
7760
4678
7919
8639
8066
1861
987
7839
3312
5616
5510
8278
581
5662
6529
8258
3033
9448
8963
5752
5573
1355
9446
5749
4244
4380
1684
5094
403
6977
6466
547
3330
8681
